NAME: tsp45_29
COMMENT: 45-tsp problem (Padberg/Rinaldi)
TYPE: TSP
DIMENSION: 45
EDGE_WEIGHT_TYPE : EUC_2D
NODE_COORD_SECTION
1 29 21
2 11 34
3 9 32
4 18 24
5 32 36
6 33 30
7 21 39
8 9 20
9 21 9
10 29 4
11 24 20
12 24 18
13 18 37
14 28 11
15 22 16
16 30 19
17 37 19
18 22 27
19 15 31
20 7 36
21 24 40
22 30 18
23 15 19
24 18 7
25 22 11
26 18 37
27 1 9
28 8 38
29 12 19
30 28 1
31 4 2
32 39 24
33 9 30
34 2 16
35 4 24
36 13 40
37 14 9
38 26 12
39 19 29
40 20 16
41 20 2
42 8 25
43 12 27
44 38 32
45 5 8
